Problem:    
Rows:       260
Columns:    89 (72 integer, 72 binary)
Non-zeros:  974
Status:     INTEGER OPTIMAL
Objective:  value = 5.999831 (MINimum)

   No.   Row name        Activity     Lower bound   Upper bound
------ ------------    ------------- ------------- -------------
     1 r.5                      1006             0               
     2 r.6                  -998.941      -999.015               
     3 r.7                   5.99983             0               
     4 r.8                  -991.945      -992.018               
     5 r.9                      1006             0               
     6 r.10                  -997.98      -999.039               
     7 r.11                  5.99983             0               
     8 r.12                  2.23001      -991.875               
     9 r.13                     1006             0               
    10 r.14                 -997.891       -999.91               
    11 r.15                  5.99983             0               
    12 r.16                  2.23001      -998.876               
    13 r.17                     1006             0               
    14 r.18                  -997.77      -999.879               
    15 r.19                  5.99983             0               
    16 r.20                  2.23001      -998.525               
    17 r.21                     1006             0               
    18 r.22                 -995.606       -999.57               
    19 r.23                  5.99983             0               
    20 r.24                  4.39443      -996.136               
    21 r.25                     1006             0               
    22 r.26                 -999.926      -999.926               
    23 r.27                  5.99983             0               
    24 r.28                 -998.994      -998.994               
    25 r.29                     1006             0               
    26 r.30                 -996.036      -998.266               
    27 r.31                  5.99983             0               
    28 r.32                  5.99983      -996.741               
    29 r.33                     1006             0               
    30 r.34                     -994      -998.395               
    31 r.35                  5.99983             0               
    32 r.36                  5.99983      -996.835               
    33 r.37                        1             1             = 
    34 r.38                        1             1             = 
    35 r.39                        1             1             = 
    36 r.40                        1             1             = 
    37 r.41                        1             1             = 
    38 r.42                        1             1             = 
    39 r.43                        1             1             = 
    40 r.44                        1             1             = 
    41 r.45                        2             2               
    42 r.46                       -2         -1001               
    43 r.47                 -999.039      -999.039               
    44 r.48                     1000             2               
    45 r.49                    -1000         -1001               
    46 r.50                  2994.17      -991.875               
    47 r.51                        2             2               
    48 r.52                       -2         -1001               
    49 r.53                 -998.949       -999.91               
    50 r.54                     1000             2               
    51 r.55                    -1000         -1001               
    52 r.56                  2994.17      -998.876               
    53 r.57                        2             2               
    54 r.58                       -2         -1001               
    55 r.59                 -998.829      -999.879               
    56 r.60                     1000             2               
    57 r.61                    -1000         -1001               
    58 r.62                  2994.17      -998.525               
    59 r.63                        2             2               
    60 r.64                       -2         -1001               
    61 r.65                 -996.664       -999.57               
    62 r.66                     1000             2               
    63 r.67                    -1000         -1001               
    64 r.68                  2996.34      -996.136               
    65 r.69                 -999.015      -999.015               
    66 r.70                 -992.018      -992.018               
    67 r.71                 0.053311      -999.015               
    68 r.72                   7.0497      -992.018               
    69 r.73                 -997.095      -998.266               
    70 r.74                  4.94096      -996.741               
    71 r.75                 -4.09115      -998.266               
    72 r.76                  997.945      -996.741               
    73 r.77                 -995.059      -998.395               
    74 r.78                  4.94096      -996.835               
    75 r.79                 -2.05542      -998.395               
    76 r.80                  997.945      -996.835               
    77 r.81                        2             2               
    78 r.82                       -2         -1001               
    79 r.83                  999.039      0.985167               
    80 r.84                     1000             2               
    81 r.85                    -1000         -1001               
    82 r.86                  1005.83       7.98155               
    83 r.87                        2             2               
    84 r.88                       -2         -1001               
    85 r.89                  -999.91       -999.91               
    86 r.90                     1000             2               
    87 r.91                    -1000         -1001               
    88 r.92                     2000      -998.876               
    89 r.93                        2             2               
    90 r.94                       -2         -1001               
    91 r.95                  -999.79      -999.879               
    92 r.96                     1000             2               
    93 r.97                    -1000         -1001               
    94 r.98                     2000      -998.525               
    95 r.99                        2             2               
    96 r.100                      -2         -1001               
    97 r.101                -997.625       -999.57               
    98 r.102                    1000             2               
    99 r.103                   -1000         -1001               
   100 r.104                 2002.16      -996.136               
   101 r.105                -998.054      -999.039               
   102 r.106                 2.15631      -991.875               
   103 r.107                 1.01415      -999.039               
   104 r.108                 1001.22      -991.875               
   105 r.109                -998.056      -998.266               
   106 r.110                 3.98012      -996.741               
   107 r.111                -998.266      -998.266               
   108 r.112                 3.76982      -996.741               
   109 r.113                       2             2               
   110 r.114                      -2         -1001               
   111 r.115                 -996.02      -998.395               
   112 r.116                    1000             2               
   113 r.117                   -1000         -1001               
   114 r.118                 2003.77      -996.835               
   115 r.119                       2             2               
   116 r.120                      -2         -1001               
   117 r.121                 998.949      0.985167               
   118 r.122                    1000             2               
   119 r.123                   -1000         -1001               
   120 r.124                 1005.83       7.98155               
   121 r.125                       2             2               
   122 r.126                      -2         -1001               
   123 r.127                  999.91      0.960842               
   124 r.128                    1000             2               
   125 r.129                   -1000         -1001               
   126 r.130                    2000       8.12452               
   127 r.131                       2             2               
   128 r.132                      -2         -1001               
   129 r.133                -999.879      -999.879               
   130 r.134                    1000             2               
   131 r.135                   -1000         -1001               
   132 r.136                    2000      -998.525               
   133 r.137                       2             2               
   134 r.138                      -2         -1001               
   135 r.139                -997.715       -999.57               
   136 r.140                    1000             2               
   137 r.141                   -1000         -1001               
   138 r.142                 2002.16      -996.136               
   139 r.143                -997.964       -999.91               
   140 r.144                 2.15631      -998.876               
   141 r.145                  1.1039       -999.91               
   142 r.146                 1001.22      -998.876               
   143 r.147                -998.145      -998.266               
   144 r.148                 3.89038      -996.741               
   145 r.149                -998.266      -998.266               
   146 r.150                 3.76982      -996.741               
   147 r.151                 -996.11      -998.395               
   148 r.152                 3.89038      -996.835               
   149 r.153                 -996.23      -998.395               
   150 r.154                 3.76982      -996.835               
   151 r.155                       2             2               
   152 r.156                      -2         -1001               
   153 r.157                 998.829      0.985167               
   154 r.158                    1000             2               
   155 r.159                   -1000         -1001               
   156 r.160                 1005.83       7.98155               
   157 r.161                       2             2               
   158 r.162                      -2         -1001               
   159 r.163                  999.79      0.960842               
   160 r.164                    1000             2               
   161 r.165                   -1000         -1001               
   162 r.166                    2000       8.12452               
   163 r.167                       2             2               
   164 r.168                      -2         -1001               
   165 r.169                 999.879      0.089744               
   166 r.170                    1000             2               
   167 r.171                   -1000         -1001               
   168 r.172                    2000       1.12402               
   169 r.173                       2             2               
   170 r.174                      -2         -1001               
   171 r.175                -997.836       -999.57               
   172 r.176                    1000             2               
   173 r.177                   -1000         -1001               
   174 r.178                 2002.16      -996.136               
   175 r.179                -997.844      -999.879               
   176 r.180                 2.15631      -998.525               
   177 r.181                 1.22445      -999.879               
   178 r.182                 1001.22      -998.525               
   179 r.183                -998.266      -998.266               
   180 r.184                 3.76982      -996.741               
   181 r.185                -998.266      -998.266               
   182 r.186                 3.76982      -996.741               
   183 r.187                       2             2               
   184 r.188                      -2         -1001               
   185 r.189                 -996.23      -998.395               
   186 r.190                    1000             2               
   187 r.191                   -1000         -1001               
   188 r.192                 2003.77      -996.835               
   189 r.193                       2             2               
   190 r.194                      -2         -1001               
   191 r.195                 996.664      0.985167               
   192 r.196                    1000             2               
   193 r.197                   -1000         -1001               
   194 r.198                 1003.66       7.98155               
   195 r.199                       2             2               
   196 r.200                      -2         -1001               
   197 r.201                 997.625      0.960842               
   198 r.202                    1000             2               
   199 r.203                   -1000         -1001               
   200 r.204                 1997.84       8.12452               
   201 r.205                       2             2               
   202 r.206                      -2         -1001               
   203 r.207                 997.715      0.089744               
   204 r.208                    1000             2               
   205 r.209                   -1000         -1001               
   206 r.210                 1997.84       1.12402               
   207 r.211                       2             2               
   208 r.212                      -2         -1001               
   209 r.213                 997.836      0.120556               
   210 r.214                    1000             2               
   211 r.215                   -1000         -1001               
   212 r.216                 1997.84       1.47511               
   213 r.217                -995.679       -999.57               
   214 r.218                 4.32073      -996.136               
   215 r.219                 3.38887       -999.57               
   216 r.220                 1003.39      -996.136               
   217 r.221                       2             2               
   218 r.222                      -2         -1001               
   219 r.223               -0.430322      -998.266               
   220 r.224                    1000             2               
   221 r.225                   -1000         -1001               
   222 r.226                 2001.61      -996.741               
   223 r.227                -998.395      -998.395               
   224 r.228                  1.6054      -996.835               
   225 r.229                -998.395      -998.395               
   226 r.230                  1.6054      -996.835               
   227 r.231                 -996.11      -998.266               
   228 r.232                 5.92613      -996.741               
   229 r.233                 2.95855      -998.266               
   230 r.234                 1004.99      -996.741               
   231 r.235                       2             2               
   232 r.236                      -2         -1001               
   233 r.237                0.430322      0.430322               
   234 r.238                    1000             2               
   235 r.239                   -1000         -1001               
   236 r.240                 1998.39       3.86385               
   237 r.241                       2             2               
   238 r.242                      -2         -1001               
   239 r.243                -997.964      -998.395               
   240 r.244                    1000             2               
   241 r.245                   -1000         -1001               
   242 r.246                    2000      -996.835               
   243 r.247                       2             2               
   244 r.248                      -2         -1001               
   245 r.249                  996.02      0.960842               
   246 r.250                    1000             2               
   247 r.251                   -1000         -1001               
   248 r.252                 1996.23       8.12452               
   249 r.253                       2             2               
   250 r.254                      -2         -1001               
   251 r.255                  996.23      0.120556               
   252 r.256                    1000             2               
   253 r.257                   -1000         -1001               
   254 r.258                 1996.23       1.47511               
   255 r.259                       2             2               
   256 r.260                      -2         -1001               
   257 r.261                 997.964        1.7341               
   258 r.262                    1000             2               
   259 r.263                   -1000         -1001               
   260 r.264                    2000       3.25896               

   No. Column name       Activity     Lower bound   Upper bound
------ ------------    ------------- ------------- -------------
     1 tt                    5.99983             0               
     2 s_1_1        *              1             0             1 
     3 t_1_1                 4.94096             0               
     4 s_1_8        *              1             0             1 
     5 s_1_7        *              1             0             1 
     6 s_2_1        *              0             0             1 
     7 t_2_1                 997.945             0               
     8 s_2_8        *              0             0             1 
     9 s_2_7        *              0             0             1 
    10 s_1_2        *              1             0             1 
    11 t_1_2                 3.98012             0               
    12 s_2_2        *              0             0             1 
    13 t_2_2                 3.76982             0               
    14 s_1_3        *              1             0             1 
    15 t_1_3                 3.89038             0               
    16 s_2_3        *              0             0             1 
    17 t_2_3                 3.76982             0               
    18 s_1_4        *              1             0             1 
    19 t_1_4                 3.76982             0               
    20 s_2_4        *              0             0             1 
    21 t_2_4                 3.76982             0               
    22 s_1_5        *              1             0             1 
    23 t_1_5                  1.6054             0               
    24 s_2_5        *              0             0             1 
    25 t_2_5                  1.6054             0               
    26 s_1_6        *              1             0             1 
    27 t_1_6                 5.92613             0               
    28 s_2_6        *              0             0             1 
    29 t_2_6                 1004.99             0               
    30 t_1_7                 2.03572             0               
    31 t_2_7                       0             0               
    32 t_1_8                       0             0               
    33 t_2_8                       0             0               
    34 r_1_1_2      *              0             0             1 
    35 u_1_1_2      *              1             0             1 
    36 r_2_1_2      *              1             0             1 
    37 u_2_1_2      *              0             0             1 
    38 r_1_1_3      *              0             0             1 
    39 u_1_1_3      *              1             0             1 
    40 r_2_1_3      *              1             0             1 
    41 u_2_1_3      *              0             0             1 
    42 r_1_1_4      *              0             0             1 
    43 u_1_1_4      *              1             0             1 
    44 r_2_1_4      *              1             0             1 
    45 u_2_1_4      *              0             0             1 
    46 r_1_1_5      *              0             0             1 
    47 u_1_1_5      *              1             0             1 
    48 r_2_1_5      *              1             0             1 
    49 u_2_1_5      *              0             0             1 
    50 r_1_2_3      *              0             0             1 
    51 u_1_2_3      *              1             0             1 
    52 r_2_2_3      *              1             0             1 
    53 u_2_2_3      *              0             0             1 
    54 r_1_2_4      *              0             0             1 
    55 u_1_2_4      *              1             0             1 
    56 r_2_2_4      *              1             0             1 
    57 u_2_2_4      *              0             0             1 
    58 r_1_2_5      *              0             0             1 
    59 u_1_2_5      *              1             0             1 
    60 r_2_2_5      *              1             0             1 
    61 u_2_2_5      *              0             0             1 
    62 r_1_2_8      *              0             0             1 
    63 u_1_2_8      *              1             0             1 
    64 r_2_2_8      *              1             0             1 
    65 u_2_2_8      *              0             0             1 
    66 r_1_3_4      *              0             0             1 
    67 u_1_3_4      *              1             0             1 
    68 r_2_3_4      *              1             0             1 
    69 u_2_3_4      *              0             0             1 
    70 r_1_3_5      *              0             0             1 
    71 u_1_3_5      *              1             0             1 
    72 r_2_3_5      *              1             0             1 
    73 u_2_3_5      *              0             0             1 
    74 r_1_4_5      *              0             0             1 
    75 u_1_4_5      *              1             0             1 
    76 r_2_4_5      *              1             0             1 
    77 u_2_4_5      *              0             0             1 
    78 r_1_4_8      *              0             0             1 
    79 u_1_4_8      *              1             0             1 
    80 r_2_4_8      *              1             0             1 
    81 u_2_4_8      *              0             0             1 
    82 r_1_5_7      *              0             0             1 
    83 u_1_5_7      *              0             0             1 
    84 r_2_5_7      *              1             0             1 
    85 u_2_5_7      *              0             0             1 
    86 r_1_7_8      *              0             0             1 
    87 u_1_7_8      *              1             0             1 
    88 r_2_7_8      *              1             0             1 
    89 u_2_7_8      *              0             0             1 

Integer feasibility conditions:

KKT.PE: max.abs.err = 4.55e-13 on row 64
        max.rel.err = 1.69e-16 on row 22
        High quality

KKT.PB: max.abs.err = 1.14e-13 on row 85
        max.rel.err = 1.14e-16 on row 85
        High quality

End of output
